p edge 1003 1863
e 1 3 1
e 1 2 1
e 2 4 1
e 3 31 1
e 3 4 1
e 4 32 1
e 4 5 1
e 5 33 1
e 5 6 1
e 6 34 1
e 6 7 1
e 7 35 1
e 7 8 1
e 8 36 1
e 8 9 1
e 9 37 1
e 9 10 1
e 10 38 1
e 10 11 1
e 11 39 1
e 11 12 1
e 12 40 1
e 12 13 1
e 13 41 1
e 13 14 1
e 14 42 1
e 14 15 1
e 15 43 1
e 16 49 1
e 16 17 1
e 17 50 1
e 17 18 1
e 18 51 1
e 18 19 1
e 19 52 1
e 19 20 1
e 20 53 1
e 20 21 1
e 21 54 1
e 21 22 1
e 22 55 1
e 22 23 1
e 23 56 1
e 23 24 1
e 24 57 1
e 24 25 1
e 25 58 1
e 25 26 1
e 26 59 1
e 26 27 1
e 27 60 1
e 27 28 1
e 28 61 1
e 28 29 1
e 29 62 1
e 30 31 1
e 31 70 1
e 31 32 1
e 32 71 1
e 32 33 1
e 33 72 1
e 33 34 1
e 34 73 1
e 34 35 1
e 35 74 1
e 35 36 1
e 36 75 1
e 36 37 1
e 37 76 1
e 37 38 1
e 38 77 1
e 38 39 1
e 39 78 1
e 39 40 1
e 40 79 1
e 40 41 1
e 41 80 1
e 41 42 1
e 42 81 1
e 42 43 1
e 43 82 1
e 43 44 1
e 44 83 1
e 44 45 1
e 45 84 1
e 45 46 1
e 46 85 1
e 46 47 1
e 47 86 1
e 47 48 1
e 48 87 1
e 49 89 1
e 49 50 1
e 50 51 1
e 51 52 1
e 52 90 1
e 52 53 1
e 53 91 1
e 53 54 1
e 54 92 1
e 54 55 1
e 55 93 1
e 55 56 1
e 56 94 1
e 56 57 1
e 57 95 1
e 57 58 1
e 58 96 1
e 58 59 1
e 59 97 1
e 59 60 1
e 60 98 1
e 60 61 1
e 61 99 1
e 61 62 1
e 62 100 1
e 62 63 1
e 63 101 1
e 63 64 1
e 64 102 1
e 64 65 1
e 65 103 1
e 65 66 1
e 66 104 1
e 66 67 1
e 67 105 1
e 67 68 1
e 68 106 1
e 68 69 1
e 69 107 1
e 70 108 1
e 70 71 1
e 71 109 1
e 71 72 1
e 72 110 1
e 72 73 1
e 73 111 1
e 73 74 1
e 74 112 1
e 74 75 1
e 75 113 1
e 75 76 1
e 76 114 1
e 76 77 1
e 77 115 1
e 77 78 1
e 78 116 1
e 78 79 1
e 79 117 1
e 79 80 1
e 80 118 1
e 80 81 1
e 81 119 1
e 81 82 1
e 82 120 1
e 82 83 1
e 83 121 1
e 83 84 1
e 84 122 1
e 84 85 1
e 85 123 1
e 85 86 1
e 86 124 1
e 86 87 1
e 87 125 1
e 87 88 1
e 88 126 1
e 89 127 1
e 90 128 1
e 90 91 1
e 91 129 1
e 91 92 1
e 92 130 1
e 92 93 1
e 93 131 1
e 93 94 1
e 94 132 1
e 94 95 1
e 95 133 1
e 95 96 1
e 96 134 1
e 96 97 1
e 97 135 1
e 97 98 1
e 98 136 1
e 98 99 1
e 99 137 1
e 99 100 1
e 100 138 1
e 100 101 1
e 101 139 1
e 101 102 1
e 102 140 1
e 102 103 1
e 103 141 1
e 103 104 1
e 104 142 1
e 104 105 1
e 105 143 1
e 105 106 1
e 106 144 1
e 106 107 1
e 107 145 1
e 108 146 1
e 108 109 1
e 109 147 1
e 109 110 1
e 110 148 1
e 110 111 1
e 111 149 1
e 111 112 1
e 112 150 1
e 112 113 1
e 113 151 1
e 113 114 1
e 114 152 1
e 114 115 1
e 115 153 1
e 115 116 1
e 116 154 1
e 116 117 1
e 117 155 1
e 117 118 1
e 118 156 1
e 118 119 1
e 119 157 1
e 119 120 1
e 120 158 1
e 120 121 1
e 121 159 1
e 121 122 1
e 122 160 1
e 122 123 1
e 123 161 1
e 123 124 1
e 124 162 1
e 124 125 1
e 125 163 1
e 125 126 1
e 126 164 1
e 127 165 1
e 128 168 1
e 128 129 1
e 129 169 1
e 129 130 1
e 130 170 1
e 130 131 1
e 131 171 1
e 131 132 1
e 132 172 1
e 132 133 1
e 133 173 1
e 133 134 1
e 134 174 1
e 134 135 1
e 135 175 1
e 135 136 1
e 136 176 1
e 136 137 1
e 137 177 1
e 137 138 1
e 138 178 1
e 138 139 1
e 139 179 1
e 139 140 1
e 140 180 1
e 140 141 1
e 141 181 1
e 141 142 1
e 142 182 1
e 142 143 1
e 143 183 1
e 143 144 1
e 144 184 1
e 144 145 1
e 145 185 1
e 146 186 1
e 146 147 1
e 147 187 1
e 147 148 1
e 148 188 1
e 148 149 1
e 149 189 1
e 149 150 1
e 150 190 1
e 150 151 1
e 151 191 1
e 151 152 1
e 152 192 1
e 152 153 1
e 153 193 1
e 153 154 1
e 154 194 1
e 154 155 1
e 155 195 1
e 155 156 1
e 156 196 1
e 156 157 1
e 157 197 1
e 157 158 1
e 158 198 1
e 158 159 1
e 159 199 1
e 159 160 1
e 160 200 1
e 160 161 1
e 161 201 1
e 161 162 1
e 162 202 1
e 162 163 1
e 163 203 1
e 163 164 1
e 164 204 1
e 165 205 1
e 165 166 1
e 166 206 1
e 166 167 1
e 167 207 1
e 167 168 1
e 168 208 1
e 168 169 1
e 169 209 1
e 169 170 1
e 170 210 1
e 170 171 1
e 171 211 1
e 171 172 1
e 172 212 1
e 172 173 1
e 173 213 1
e 173 174 1
e 174 214 1
e 174 175 1
e 175 215 1
e 175 176 1
e 176 216 1
e 176 177 1
e 177 217 1
e 177 178 1
e 178 218 1
e 178 179 1
e 179 219 1
e 179 180 1
e 180 220 1
e 180 181 1
e 181 221 1
e 181 182 1
e 182 222 1
e 182 183 1
e 183 223 1
e 183 184 1
e 184 224 1
e 184 185 1
e 185 225 1
e 186 226 1
e 186 187 1
e 187 227 1
e 187 188 1
e 188 228 1
e 188 189 1
e 189 229 1
e 189 190 1
e 190 230 1
e 190 191 1
e 191 231 1
e 191 192 1
e 192 232 1
e 192 193 1
e 193 233 1
e 193 194 1
e 194 234 1
e 194 195 1
e 195 235 1
e 195 196 1
e 196 236 1
e 196 197 1
e 197 237 1
e 197 198 1
e 198 238 1
e 198 199 1
e 199 239 1
e 199 200 1
e 200 240 1
e 200 201 1
e 201 241 1
e 201 202 1
e 202 242 1
e 202 203 1
e 203 243 1
e 203 204 1
e 204 244 1
e 205 206 1
e 206 207 1
e 207 208 1
e 208 209 1
e 209 210 1
e 210 211 1
e 211 212 1
e 212 213 1
e 213 245 1
e 213 214 1
e 214 246 1
e 214 215 1
e 215 247 1
e 215 216 1
e 216 248 1
e 216 217 1
e 217 249 1
e 217 218 1
e 218 250 1
e 218 219 1
e 219 251 1
e 219 220 1
e 220 252 1
e 220 221 1
e 221 253 1
e 221 222 1
e 222 254 1
e 222 223 1
e 223 255 1
e 223 224 1
e 224 256 1
e 224 225 1
e 225 257 1
e 226 258 1
e 226 227 1
e 227 259 1
e 227 228 1
e 228 260 1
e 228 229 1
e 229 261 1
e 229 230 1
e 230 262 1
e 230 231 1
e 231 263 1
e 231 232 1
e 232 264 1
e 232 233 1
e 233 265 1
e 233 234 1
e 234 266 1
e 234 235 1
e 235 267 1
e 235 236 1
e 236 268 1
e 236 237 1
e 237 269 1
e 237 238 1
e 238 270 1
e 238 239 1
e 239 271 1
e 239 240 1
e 240 272 1
e 240 241 1
e 241 273 1
e 241 242 1
e 242 274 1
e 242 243 1
e 243 275 1
e 243 244 1
e 244 276 1
e 245 277 1
e 245 246 1
e 246 278 1
e 246 247 1
e 247 279 1
e 247 248 1
e 248 280 1
e 248 249 1
e 249 281 1
e 249 250 1
e 250 282 1
e 250 251 1
e 251 283 1
e 251 252 1
e 252 284 1
e 252 253 1
e 253 285 1
e 253 254 1
e 254 286 1
e 254 255 1
e 255 287 1
e 255 256 1
e 256 257 1
e 258 288 1
e 258 259 1
e 259 289 1
e 259 260 1
e 260 290 1
e 260 261 1
e 261 291 1
e 261 262 1
e 262 292 1
e 262 263 1
e 263 293 1
e 263 264 1
e 264 294 1
e 264 265 1
e 265 295 1
e 265 266 1
e 266 296 1
e 266 267 1
e 267 297 1
e 267 268 1
e 268 298 1
e 268 269 1
e 269 299 1
e 269 270 1
e 270 300 1
e 270 271 1
e 271 301 1
e 271 272 1
e 272 302 1
e 272 273 1
e 273 303 1
e 273 274 1
e 274 304 1
e 274 275 1
e 275 305 1
e 275 276 1
e 276 306 1
e 277 309 1
e 277 278 1
e 278 310 1
e 278 279 1
e 279 311 1
e 279 280 1
e 280 312 1
e 280 281 1
e 281 313 1
e 281 282 1
e 282 314 1
e 282 283 1
e 283 315 1
e 283 284 1
e 284 316 1
e 284 285 1
e 285 317 1
e 285 286 1
e 286 318 1
e 286 287 1
e 287 319 1
e 288 320 1
e 288 289 1
e 289 321 1
e 289 290 1
e 290 322 1
e 290 291 1
e 291 323 1
e 291 292 1
e 292 324 1
e 292 293 1
e 293 325 1
e 293 294 1
e 294 326 1
e 294 295 1
e 295 327 1
e 295 296 1
e 296 328 1
e 296 297 1
e 297 329 1
e 297 298 1
e 298 330 1
e 298 299 1
e 299 331 1
e 299 300 1
e 300 332 1
e 300 301 1
e 301 333 1
e 301 302 1
e 302 334 1
e 302 303 1
e 303 335 1
e 303 304 1
e 304 336 1
e 304 305 1
e 305 337 1
e 305 306 1
e 306 338 1
e 306 307 1
e 307 339 1
e 308 342 1
e 308 309 1
e 309 343 1
e 309 310 1
e 310 344 1
e 310 311 1
e 311 345 1
e 311 312 1
e 312 346 1
e 312 313 1
e 313 347 1
e 313 314 1
e 314 348 1
e 314 315 1
e 315 349 1
e 315 316 1
e 316 350 1
e 316 317 1
e 317 351 1
e 317 318 1
e 318 352 1
e 318 319 1
e 319 353 1
e 320 356 1
e 320 321 1
e 321 357 1
e 321 322 1
e 322 358 1
e 322 323 1
e 323 359 1
e 323 324 1
e 324 360 1
e 324 325 1
e 325 361 1
e 325 326 1
e 326 362 1
e 326 327 1
e 327 363 1
e 327 328 1
e 328 364 1
e 328 329 1
e 329 365 1
e 329 330 1
e 330 366 1
e 330 331 1
e 331 367 1
e 331 332 1
e 332 368 1
e 332 333 1
e 333 369 1
e 333 334 1
e 334 370 1
e 334 335 1
e 335 371 1
e 335 336 1
e 336 372 1
e 336 337 1
e 337 373 1
e 337 338 1
e 338 374 1
e 338 339 1
e 339 375 1
e 339 340 1
e 340 376 1
e 340 341 1
e 341 377 1
e 342 380 1
e 342 343 1
e 343 381 1
e 343 344 1
e 344 382 1
e 344 345 1
e 345 383 1
e 345 346 1
e 346 384 1
e 346 347 1
e 347 385 1
e 347 348 1
e 348 386 1
e 348 349 1
e 349 387 1
e 349 350 1
e 350 388 1
e 350 351 1
e 351 389 1
e 351 352 1
e 352 390 1
e 352 353 1
e 353 391 1
e 354 392 1
e 354 355 1
e 355 393 1
e 355 356 1
e 356 394 1
e 356 357 1
e 357 395 1
e 357 358 1
e 358 396 1
e 358 359 1
e 359 397 1
e 359 360 1
e 360 398 1
e 360 361 1
e 361 399 1
e 361 362 1
e 362 400 1
e 362 363 1
e 363 401 1
e 363 364 1
e 364 402 1
e 364 365 1
e 365 403 1
e 365 366 1
e 366 404 1
e 366 367 1
e 367 405 1
e 367 368 1
e 368 406 1
e 368 369 1
e 369 407 1
e 369 370 1
e 370 408 1
e 370 371 1
e 371 409 1
e 371 372 1
e 372 410 1
e 372 373 1
e 373 411 1
e 373 374 1
e 374 412 1
e 374 375 1
e 375 413 1
e 375 376 1
e 376 414 1
e 376 377 1
e 377 415 1
e 377 378 1
e 378 416 1
e 378 379 1
e 379 417 1
e 380 418 1
e 380 381 1
e 381 419 1
e 381 382 1
e 382 420 1
e 382 383 1
e 383 421 1
e 383 384 1
e 384 422 1
e 384 385 1
e 385 423 1
e 385 386 1
e 386 424 1
e 386 387 1
e 387 425 1
e 387 388 1
e 388 426 1
e 388 389 1
e 389 427 1
e 389 390 1
e 390 428 1
e 390 391 1
e 391 429 1
e 392 430 1
e 392 393 1
e 393 431 1
e 393 394 1
e 394 432 1
e 394 395 1
e 395 433 1
e 395 396 1
e 396 434 1
e 396 397 1
e 397 435 1
e 397 398 1
e 398 436 1
e 398 399 1
e 399 437 1
e 399 400 1
e 400 438 1
e 400 401 1
e 401 439 1
e 401 402 1
e 402 440 1
e 402 403 1
e 403 441 1
e 403 404 1
e 404 442 1
e 404 405 1
e 405 443 1
e 405 406 1
e 406 444 1
e 406 407 1
e 407 445 1
e 407 408 1
e 408 446 1
e 408 409 1
e 409 447 1
e 409 410 1
e 410 448 1
e 410 411 1
e 411 449 1
e 411 412 1
e 412 450 1
e 412 413 1
e 413 414 1
e 414 415 1
e 415 416 1
e 416 417 1
e 417 451 1
e 418 419 1
e 419 420 1
e 420 421 1
e 421 452 1
e 421 422 1
e 422 453 1
e 422 423 1
e 423 454 1
e 423 424 1
e 424 455 1
e 424 425 1
e 425 456 1
e 425 426 1
e 426 457 1
e 426 427 1
e 427 458 1
e 427 428 1
e 428 459 1
e 428 429 1
e 429 460 1
e 430 461 1
e 430 431 1
e 431 462 1
e 431 432 1
e 432 463 1
e 432 433 1
e 433 464 1
e 433 434 1
e 434 465 1
e 434 435 1
e 435 466 1
e 435 436 1
e 436 467 1
e 436 437 1
e 437 468 1
e 437 438 1
e 438 469 1
e 438 439 1
e 439 470 1
e 439 440 1
e 440 471 1
e 440 441 1
e 441 472 1
e 441 442 1
e 442 473 1
e 442 443 1
e 443 474 1
e 443 444 1
e 444 475 1
e 444 445 1
e 445 476 1
e 445 446 1
e 446 477 1
e 446 447 1
e 447 478 1
e 447 448 1
e 448 479 1
e 448 449 1
e 449 480 1
e 449 450 1
e 450 481 1
e 451 482 1
e 452 483 1
e 452 453 1
e 453 484 1
e 453 454 1
e 454 485 1
e 454 455 1
e 455 486 1
e 455 456 1
e 456 487 1
e 456 457 1
e 457 488 1
e 457 458 1
e 458 489 1
e 458 459 1
e 459 490 1
e 459 460 1
e 460 491 1
e 461 492 1
e 461 462 1
e 462 493 1
e 462 463 1
e 463 494 1
e 463 464 1
e 464 495 1
e 464 465 1
e 465 496 1
e 465 466 1
e 466 497 1
e 466 467 1
e 467 498 1
e 467 468 1
e 468 499 1
e 468 469 1
e 469 500 1
e 469 470 1
e 470 501 1
e 470 471 1
e 471 502 1
e 471 472 1
e 472 503 1
e 472 473 1
e 473 504 1
e 473 474 1
e 474 505 1
e 474 475 1
e 475 506 1
e 475 476 1
e 476 507 1
e 476 477 1
e 477 508 1
e 477 478 1
e 478 509 1
e 478 479 1
e 479 510 1
e 479 480 1
e 480 511 1
e 480 481 1
e 481 512 1
e 482 513 1
e 483 514 1
e 483 484 1
e 484 515 1
e 484 485 1
e 485 516 1
e 485 486 1
e 486 517 1
e 486 487 1
e 487 518 1
e 487 488 1
e 488 519 1
e 488 489 1
e 489 520 1
e 489 490 1
e 490 521 1
e 490 491 1
e 491 522 1
e 492 493 1
e 493 494 1
e 494 525 1
e 494 495 1
e 495 526 1
e 495 496 1
e 496 527 1
e 496 497 1
e 497 528 1
e 497 498 1
e 498 529 1
e 498 499 1
e 499 530 1
e 499 500 1
e 500 531 1
e 500 501 1
e 501 532 1
e 501 502 1
e 502 533 1
e 502 503 1
e 503 534 1
e 503 504 1
e 504 535 1
e 504 505 1
e 505 536 1
e 505 506 1
e 506 537 1
e 506 507 1
e 507 538 1
e 507 508 1
e 508 539 1
e 508 509 1
e 509 540 1
e 509 510 1
e 510 541 1
e 510 511 1
e 511 542 1
e 511 512 1
e 512 543 1
e 513 544 1
e 514 548 1
e 514 515 1
e 515 549 1
e 515 516 1
e 516 550 1
e 516 517 1
e 517 551 1
e 517 518 1
e 518 552 1
e 518 519 1
e 519 553 1
e 519 520 1
e 520 554 1
e 520 521 1
e 521 555 1
e 521 522 1
e 522 556 1
e 522 523 1
e 523 557 1
e 523 524 1
e 525 558 1
e 525 526 1
e 526 559 1
e 526 527 1
e 527 560 1
e 527 528 1
e 528 561 1
e 528 529 1
e 529 562 1
e 529 530 1
e 530 563 1
e 530 531 1
e 531 564 1
e 531 532 1
e 532 565 1
e 532 533 1
e 533 566 1
e 533 534 1
e 534 567 1
e 534 535 1
e 535 568 1
e 535 536 1
e 536 569 1
e 536 537 1
e 537 570 1
e 537 538 1
e 538 571 1
e 538 539 1
e 539 572 1
e 539 540 1
e 540 573 1
e 540 541 1
e 541 574 1
e 541 542 1
e 542 575 1
e 542 543 1
e 543 576 1
e 544 577 1
e 545 546 1
e 546 547 1
e 547 578 1
e 547 548 1
e 548 579 1
e 548 549 1
e 549 580 1
e 549 550 1
e 550 581 1
e 550 551 1
e 551 582 1
e 551 552 1
e 552 583 1
e 552 553 1
e 553 584 1
e 553 554 1
e 554 585 1
e 554 555 1
e 555 586 1
e 555 556 1
e 556 587 1
e 556 557 1
e 558 588 1
e 558 559 1
e 559 589 1
e 559 560 1
e 560 590 1
e 560 561 1
e 561 591 1
e 561 562 1
e 562 592 1
e 562 563 1
e 563 593 1
e 563 564 1
e 564 594 1
e 564 565 1
e 565 595 1
e 565 566 1
e 566 596 1
e 566 567 1
e 567 597 1
e 567 568 1
e 568 598 1
e 568 569 1
e 569 599 1
e 569 570 1
e 570 600 1
e 570 571 1
e 571 601 1
e 571 572 1
e 572 602 1
e 572 573 1
e 573 603 1
e 573 574 1
e 574 604 1
e 574 575 1
e 575 605 1
e 575 576 1
e 576 606 1
e 577 607 1
e 578 608 1
e 578 579 1
e 579 609 1
e 579 580 1
e 580 610 1
e 580 581 1
e 581 611 1
e 581 582 1
e 582 612 1
e 582 583 1
e 583 613 1
e 583 584 1
e 584 614 1
e 584 585 1
e 585 615 1
e 585 586 1
e 586 616 1
e 586 587 1
e 587 617 1
e 588 618 1
e 588 589 1
e 589 619 1
e 589 590 1
e 590 620 1
e 590 591 1
e 591 621 1
e 591 592 1
e 592 622 1
e 592 593 1
e 593 623 1
e 593 594 1
e 594 624 1
e 594 595 1
e 595 625 1
e 595 596 1
e 596 626 1
e 596 597 1
e 597 627 1
e 597 598 1
e 598 628 1
e 598 599 1
e 599 629 1
e 599 600 1
e 600 630 1
e 600 601 1
e 601 631 1
e 601 602 1
e 602 632 1
e 602 603 1
e 603 633 1
e 603 604 1
e 604 634 1
e 604 605 1
e 605 635 1
e 605 606 1
e 606 636 1
e 608 637 1
e 608 609 1
e 609 638 1
e 609 610 1
e 610 639 1
e 610 611 1
e 611 640 1
e 611 612 1
e 612 641 1
e 612 613 1
e 613 642 1
e 613 614 1
e 614 643 1
e 614 615 1
e 615 644 1
e 615 616 1
e 616 645 1
e 616 617 1
e 617 646 1
e 618 647 1
e 618 619 1
e 619 648 1
e 619 620 1
e 620 649 1
e 620 621 1
e 621 650 1
e 621 622 1
e 622 651 1
e 622 623 1
e 623 652 1
e 623 624 1
e 624 653 1
e 624 625 1
e 625 654 1
e 625 626 1
e 626 655 1
e 626 627 1
e 627 656 1
e 627 628 1
e 628 657 1
e 628 629 1
e 629 658 1
e 629 630 1
e 630 659 1
e 630 631 1
e 631 660 1
e 631 632 1
e 632 661 1
e 632 633 1
e 633 662 1
e 633 634 1
e 634 663 1
e 634 635 1
e 635 664 1
e 635 636 1
e 636 665 1
e 637 666 1
e 637 638 1
e 638 667 1
e 638 639 1
e 639 668 1
e 639 640 1
e 640 669 1
e 640 641 1
e 641 670 1
e 641 642 1
e 642 671 1
e 642 643 1
e 643 672 1
e 643 644 1
e 644 673 1
e 644 645 1
e 645 674 1
e 645 646 1
e 646 675 1
e 647 676 1
e 647 648 1
e 648 677 1
e 648 649 1
e 649 678 1
e 649 650 1
e 650 679 1
e 650 651 1
e 651 680 1
e 651 652 1
e 652 681 1
e 652 653 1
e 653 682 1
e 653 654 1
e 654 683 1
e 654 655 1
e 655 684 1
e 655 656 1
e 656 685 1
e 656 657 1
e 657 686 1
e 657 658 1
e 658 687 1
e 658 659 1
e 659 688 1
e 659 660 1
e 660 689 1
e 660 661 1
e 661 690 1
e 661 662 1
e 662 691 1
e 662 663 1
e 663 692 1
e 663 664 1
e 664 693 1
e 664 665 1
e 665 694 1
e 666 695 1
e 666 667 1
e 667 696 1
e 667 668 1
e 668 697 1
e 668 669 1
e 669 698 1
e 669 670 1
e 670 699 1
e 670 671 1
e 671 700 1
e 671 672 1
e 672 701 1
e 672 673 1
e 673 702 1
e 673 674 1
e 674 703 1
e 674 675 1
e 675 704 1
e 676 705 1
e 676 677 1
e 677 706 1
e 677 678 1
e 678 707 1
e 678 679 1
e 679 708 1
e 679 680 1
e 680 709 1
e 680 681 1
e 681 710 1
e 681 682 1
e 682 711 1
e 682 683 1
e 683 712 1
e 683 684 1
e 684 713 1
e 684 685 1
e 685 714 1
e 685 686 1
e 686 715 1
e 686 687 1
e 687 716 1
e 687 688 1
e 688 717 1
e 688 689 1
e 689 718 1
e 689 690 1
e 690 719 1
e 690 691 1
e 691 720 1
e 691 692 1
e 692 721 1
e 692 693 1
e 693 722 1
e 693 694 1
e 694 723 1
e 695 724 1
e 695 696 1
e 696 725 1
e 696 697 1
e 697 726 1
e 697 698 1
e 698 727 1
e 698 699 1
e 699 728 1
e 699 700 1
e 700 729 1
e 700 701 1
e 701 730 1
e 701 702 1
e 702 731 1
e 702 703 1
e 703 732 1
e 703 704 1
e 705 733 1
e 705 706 1
e 706 734 1
e 706 707 1
e 707 735 1
e 707 708 1
e 708 736 1
e 708 709 1
e 709 737 1
e 709 710 1
e 710 738 1
e 710 711 1
e 711 739 1
e 711 712 1
e 712 740 1
e 712 713 1
e 713 741 1
e 713 714 1
e 714 742 1
e 714 715 1
e 715 743 1
e 715 716 1
e 716 744 1
e 716 717 1
e 717 745 1
e 717 718 1
e 718 746 1
e 718 719 1
e 719 747 1
e 719 720 1
e 720 748 1
e 720 721 1
e 721 749 1
e 721 722 1
e 722 750 1
e 722 723 1
e 723 751 1
e 724 755 1
e 724 725 1
e 725 756 1
e 725 726 1
e 726 757 1
e 726 727 1
e 727 758 1
e 727 728 1
e 728 759 1
e 728 729 1
e 729 760 1
e 729 730 1
e 730 761 1
e 730 731 1
e 731 762 1
e 731 732 1
e 732 763 1
e 733 764 1
e 733 734 1
e 734 765 1
e 734 735 1
e 735 766 1
e 735 736 1
e 736 767 1
e 736 737 1
e 737 768 1
e 737 738 1
e 738 769 1
e 738 739 1
e 739 770 1
e 739 740 1
e 740 771 1
e 740 741 1
e 741 772 1
e 741 742 1
e 742 773 1
e 742 743 1
e 743 774 1
e 743 744 1
e 744 775 1
e 744 745 1
e 745 776 1
e 745 746 1
e 746 777 1
e 746 747 1
e 747 778 1
e 747 748 1
e 748 779 1
e 748 749 1
e 749 780 1
e 749 750 1
e 750 781 1
e 750 751 1
e 751 782 1
e 751 752 1
e 752 783 1
e 753 754 1
e 754 784 1
e 754 755 1
e 755 785 1
e 755 756 1
e 756 786 1
e 756 757 1
e 757 787 1
e 757 758 1
e 758 788 1
e 758 759 1
e 759 789 1
e 759 760 1
e 760 790 1
e 760 761 1
e 761 791 1
e 761 762 1
e 762 792 1
e 762 763 1
e 763 793 1
e 764 796 1
e 764 765 1
e 765 797 1
e 765 766 1
e 766 798 1
e 766 767 1
e 767 799 1
e 767 768 1
e 768 800 1
e 768 769 1
e 769 801 1
e 769 770 1
e 770 802 1
e 770 771 1
e 771 803 1
e 771 772 1
e 772 804 1
e 772 773 1
e 773 805 1
e 773 774 1
e 774 806 1
e 774 775 1
e 775 807 1
e 775 776 1
e 776 808 1
e 776 777 1
e 777 809 1
e 777 778 1
e 778 810 1
e 778 779 1
e 779 811 1
e 779 780 1
e 780 812 1
e 780 781 1
e 781 813 1
e 781 782 1
e 782 814 1
e 782 783 1
e 783 815 1
e 784 817 1
e 784 785 1
e 785 818 1
e 785 786 1
e 786 819 1
e 786 787 1
e 787 820 1
e 787 788 1
e 788 821 1
e 788 789 1
e 789 822 1
e 789 790 1
e 790 823 1
e 790 791 1
e 791 824 1
e 791 792 1
e 792 825 1
e 792 793 1
e 793 826 1
e 794 827 1
e 794 795 1
e 795 828 1
e 795 796 1
e 796 829 1
e 796 797 1
e 797 830 1
e 797 798 1
e 798 831 1
e 798 799 1
e 799 832 1
e 799 800 1
e 800 833 1
e 800 801 1
e 801 834 1
e 801 802 1
e 802 835 1
e 802 803 1
e 803 836 1
e 803 804 1
e 804 837 1
e 804 805 1
e 805 838 1
e 805 806 1
e 806 839 1
e 806 807 1
e 807 840 1
e 807 808 1
e 808 841 1
e 808 809 1
e 809 842 1
e 809 810 1
e 810 843 1
e 810 811 1
e 811 844 1
e 811 812 1
e 812 845 1
e 812 813 1
e 813 846 1
e 813 814 1
e 814 847 1
e 814 815 1
e 815 848 1
e 816 856 1
e 816 817 1
e 817 857 1
e 817 818 1
e 818 858 1
e 818 819 1
e 819 859 1
e 819 820 1
e 820 860 1
e 820 821 1
e 821 861 1
e 821 822 1
e 822 862 1
e 822 823 1
e 823 863 1
e 823 824 1
e 824 864 1
e 824 825 1
e 825 865 1
e 825 826 1
e 826 866 1
e 827 828 1
e 828 829 1
e 829 867 1
e 829 830 1
e 830 868 1
e 830 831 1
e 831 869 1
e 831 832 1
e 832 870 1
e 832 833 1
e 833 871 1
e 833 834 1
e 834 872 1
e 834 835 1
e 835 873 1
e 835 836 1
e 836 874 1
e 836 837 1
e 837 875 1
e 837 838 1
e 838 876 1
e 838 839 1
e 839 877 1
e 839 840 1
e 840 878 1
e 840 841 1
e 841 879 1
e 841 842 1
e 842 880 1
e 842 843 1
e 843 881 1
e 843 844 1
e 844 882 1
e 844 845 1
e 845 883 1
e 845 846 1
e 846 884 1
e 846 847 1
e 847 885 1
e 847 848 1
e 848 886 1
e 849 890 1
e 849 850 1
e 850 891 1
e 850 851 1
e 851 892 1
e 851 852 1
e 852 893 1
e 852 853 1
e 853 894 1
e 853 854 1
e 854 895 1
e 854 855 1
e 855 896 1
e 855 856 1
e 856 897 1
e 856 857 1
e 857 898 1
e 857 858 1
e 858 899 1
e 858 859 1
e 859 900 1
e 859 860 1
e 860 901 1
e 860 861 1
e 861 902 1
e 861 862 1
e 862 903 1
e 862 863 1
e 863 904 1
e 863 864 1
e 864 905 1
e 864 865 1
e 865 906 1
e 865 866 1
e 866 907 1
e 867 908 1
e 867 868 1
e 868 909 1
e 868 869 1
e 869 910 1
e 869 870 1
e 870 911 1
e 870 871 1
e 871 912 1
e 871 872 1
e 872 913 1
e 872 873 1
e 873 914 1
e 873 874 1
e 874 915 1
e 874 875 1
e 875 916 1
e 875 876 1
e 876 917 1
e 876 877 1
e 877 918 1
e 877 878 1
e 878 919 1
e 878 879 1
e 879 920 1
e 879 880 1
e 880 921 1
e 880 881 1
e 881 922 1
e 881 882 1
e 882 923 1
e 882 883 1
e 883 924 1
e 883 884 1
e 884 925 1
e 884 885 1
e 885 926 1
e 885 886 1
e 886 927 1
e 886 887 1
e 887 928 1
e 887 888 1
e 888 929 1
e 888 889 1
e 889 930 1
e 889 890 1
e 890 931 1
e 890 891 1
e 891 932 1
e 891 892 1
e 892 933 1
e 892 893 1
e 893 934 1
e 893 894 1
e 894 935 1
e 894 895 1
e 895 936 1
e 895 896 1
e 896 937 1
e 896 897 1
e 897 938 1
e 897 898 1
e 898 939 1
e 898 899 1
e 899 940 1
e 899 900 1
e 900 941 1
e 900 901 1
e 901 942 1
e 901 902 1
e 902 943 1
e 902 903 1
e 903 944 1
e 903 904 1
e 904 945 1
e 904 905 1
e 905 946 1
e 905 906 1
e 906 947 1
e 906 907 1
e 907 948 1
e 908 909 1
e 909 949 1
e 909 910 1
e 910 950 1
e 910 911 1
e 911 951 1
e 911 912 1
e 912 952 1
e 912 913 1
e 913 953 1
e 913 914 1
e 914 954 1
e 914 915 1
e 915 955 1
e 915 916 1
e 916 956 1
e 916 917 1
e 917 918 1
e 918 919 1
e 919 920 1
e 920 957 1
e 920 921 1
e 921 958 1
e 921 922 1
e 922 959 1
e 922 923 1
e 923 960 1
e 923 924 1
e 924 961 1
e 924 925 1
e 925 962 1
e 925 926 1
e 926 963 1
e 926 927 1
e 927 964 1
e 927 928 1
e 928 965 1
e 928 929 1
e 929 930 1
e 930 931 1
e 931 966 1
e 931 932 1
e 932 967 1
e 932 933 1
e 933 968 1
e 933 934 1
e 934 969 1
e 934 935 1
e 935 970 1
e 935 936 1
e 936 971 1
e 936 937 1
e 937 972 1
e 937 938 1
e 938 973 1
e 938 939 1
e 939 974 1
e 939 940 1
e 940 975 1
e 940 941 1
e 941 976 1
e 941 942 1
e 942 977 1
e 942 943 1
e 943 978 1
e 943 944 1
e 944 979 1
e 944 945 1
e 945 946 1
e 946 947 1
e 947 948 1
e 948 980 1
e 949 950 1
e 950 951 1
e 951 952 1
e 952 981 1
e 952 953 1
e 953 954 1
e 954 955 1
e 955 956 1
e 957 958 1
e 958 982 1
e 958 959 1
e 959 983 1
e 959 960 1
e 960 984 1
e 960 961 1
e 961 985 1
e 961 962 1
e 962 986 1
e 962 963 1
e 963 987 1
e 963 964 1
e 964 988 1
e 964 965 1
e 966 989 1
e 966 967 1
e 967 990 1
e 967 968 1
e 968 991 1
e 968 969 1
e 969 992 1
e 969 970 1
e 970 993 1
e 970 971 1
e 971 994 1
e 971 972 1
e 972 995 1
e 972 973 1
e 973 996 1
e 973 974 1
e 974 997 1
e 974 975 1
e 975 998 1
e 975 976 1
e 976 999 1
e 976 977 1
e 977 1000 1
e 977 978 1
e 978 1001 1
e 978 979 1
e 979 1002 1
e 980 1003 1
e 982 983 1
e 983 984 1
e 984 985 1
e 985 986 1
e 986 987 1
e 987 988 1
e 989 990 1
e 990 991 1
e 991 992 1
e 992 993 1
e 993 994 1
e 994 995 1
e 995 996 1
e 996 997 1
e 997 998 1
e 998 999 1
e 999 1000 1
e 1000 1001 1
e 1001 1002 1